59,25
7,7
1,45
29,17
192,34
107,16
5,21
151,13
40,2
178,13
176,46
110,22
107,61
153,57
146,84
11,17
70,69
127,16
48,83
175,74
157,8
3,22
57,14
181,37
42,48
165,73
147,9
29,12
23,97
37,77
20,8
53,17
9,47
107,18
187,78
25,11
151,21
103,23
58,94
68,55
118,14
127,27
109,44
75,24
158,100
146,6
47,61
76,33
111,70
200,4
